10J3M/DAT/10J3MUTL-1.dat
10 3
14.5387 14.5387
44.6152 44.6152
2.8802 2.8802
48.1933 48.1933
44.8322 44.8322
37.462 37.462
22.6985 22.6985
13.5274 13.5274
37.9347 37.9347
14.5008 14.5008
70.2958