10J3M/SOL/10J3MUTL-1.sol
solution status: optimal solution found
objective value:                               53.566
x#1#3                                               1 	(obj:0)
x#2#1                                               1 	(obj:0)
x#3#1                              0.0773703022834004 	(obj:0)
x#3#2                                 0.9226296977166 	(obj:0)
x#4#3                                               1 	(obj:0)
x#5#3                                               1 	(obj:0)
x#6#2                               0.646556322298896 	(obj:0)
x#6#3                               0.244145247858119 	(obj:0)
x#7#1                                               1 	(obj:0)
x#8#1                                               1 	(obj:0)
x#10#3                                              1 	(obj:0)
z                                              53.566 	(obj:1)
